(set-logic QF_BV)
(declare-fun _substvar_325_ () (_ BitVec 8))
(declare-fun _substvar_352_ () (_ BitVec 8))
(declare-fun _substvar_337_ () (_ BitVec 16))
(declare-fun _substvar_122_ () (_ BitVec 8))
(declare-fun _substvar_334_ () (_ BitVec 16))
(assert (let ( (?v_14 ((_ zero_extend 24) _substvar_122_)) (?v_10 ((_ zero_extend 24) _substvar_325_))) (let ((?v_2 (bvadd (bvadd (_ bv0 32) (_ bv1581277 32)) ((_ zero_extend 16) _substvar_337_)))) (let ((?v_4 (bvadd ?v_2 (_ bv6 32)))) (let ((?v_6 (bvadd (bvadd ?v_4 (_ bv0 32)) (_ bv2 32)))) (let ((?v_5 (bvadd ?v_6 ((_ zero_extend 16) _substvar_334_)))) (let ((?v_8 (bvadd ?v_5 (_ bv6 32)))) (let ((?v_9 (bvadd ?v_8 (_ bv0 32)))) (let ((?v_13 (bvadd ?v_9 (_ bv2 32)))) (let ((?v_12 (bvadd ?v_13 ?v_10))) (let ((?v_18 (bvadd (bvadd ?v_12 (_ bv1 32)) ?v_14))) (let ((?v_19 (bvadd (bvadd ?v_18 (_ bv1 32)) (_ bv0 32)))) (and true true (= _substvar_334_ (bvor (_ bv0 16) ((_ zero_extend 8) _substvar_352_))) true (bvsle (_ bv1040 32) (bvsub ?v_19 (_ bv1581095 32))) true true true true true true (bvule ?v_6 (_ bv1582102 32)) true true true true true true true true true true true true true true (bvule (bvadd ?v_19 (_ bv2 32)) (_ bv1582102 32)))))))))))))))
(check-sat)
(exit)
